CPXPARAM_Read_DataCheck                          1
CPXPARAM_Barrier_Display                         2
CPXPARAM_Barrier_QCPConvergeTol                  9.9999999999999998e-13
Tried aggregator 1 time.
QCP Presolve eliminated 1 rows and 0 columns.
Aggregator did 7 substitutions.
Reduced QCP has 69617 rows, 65530 columns, and 163786 nonzeros.
Reduced QCP has 1 quadratic constraints.
Presolve time = 0.07 sec. (80.74 ticks)
Parallel mode: using up to 8 threads for barrier.
Looking for dense columns with more than 6 nonzeros.

***NOTE: Found 1 dense columns.

Number of nonzeros in lower triangle of A*A' = 196448
Using Approximate Minimum Degree ordering
Total time for automatic ordering = 1.30 sec. (956.55 ticks)
Summary statistics for Cholesky factor:
  Threads                   = 8
  Rows in Factor            = 69617
  Integer space required    = 195389
  Total non-zeros in factor = 3477960
  Total FP ops to factor    = 5277933504
L has 32871 super-nodes.
Histogram of super-node widths:
SupWidth:      1      2      3      4      5      6      7      9     11
  Number:    408  31987    118      4    140      1    137     65     10

SupWidth:   2505
  Number:      1

 Itn      Primal Obj        Dual Obj  Prim Inf Upper Inf  Dual Inf Inf Ratio
   0   2.1753655e+08   3.3000000e+07  6.66e+07  0.00e+00  1.85e+08  1.00e+00
       0.12s (145.55 ticks) for iteration (0.08s, 69822 Mflops for lin. solve)
   1   2.1753669e+08   3.3000293e+07  6.66e+07  0.00e+00  1.85e+08  7.23e-01
       0.28s (209.12 ticks) for iteration (0.14s, 37151 Mflops for lin. solve)
   2   2.1756694e+08   3.3098257e+07  6.66e+07  0.00e+00  1.85e+08  7.23e-01
       0.17s (204.71 ticks) for iteration (0.07s, 79480 Mflops for lin. solve)
   3   2.1619078e+08   3.1782068e+07  6.66e+07  0.00e+00  1.84e+08  4.27e-01
       0.23s (252.83 ticks) for iteration (0.07s, 78850 Mflops for lin. solve)
   4   2.1075521e+08   2.6388343e+07  6.65e+07  0.00e+00  1.84e+08  2.98e-01
       0.20s (228.51 ticks) for iteration (0.07s, 78540 Mflops for lin. solve)
   5   2.1058250e+08   2.6218699e+07  6.65e+07  0.00e+00  1.84e+08  2.89e-01
       0.22s (228.90 ticks) for iteration (0.07s, 78016 Mflops for lin. solve)
   6   2.0599311e+08   2.1748830e+07  6.65e+07  0.00e+00  1.84e+08  1.76e-01
       0.25s (252.83 ticks) for iteration (0.07s, 78512 Mflops for lin. solve)
   7   2.0126918e+08   1.7163329e+07  6.65e+07  0.00e+00  1.84e+08  1.20e-01
       0.27s (252.57 ticks) for iteration (0.07s, 70632 Mflops for lin. solve)
   8   1.7341645e+08  -9.7801760e+06  6.64e+07  0.00e+00  1.84e+08  3.40e-02
       0.20s (205.10 ticks) for iteration (0.07s, 79068 Mflops for lin. solve)
   9   1.9505443e+08   1.6540501e+07  6.61e+07  0.00e+00  1.83e+08  8.86e-03
       0.24s (254.92 ticks) for iteration (0.07s, 79638 Mflops for lin. solve)
  10   1.9999382e+08   2.4678239e+07  6.44e+07  0.00e+00  1.79e+08  6.16e-03
       0.17s (205.36 ticks) for iteration (0.07s, 78999 Mflops for lin. solve)
  11   2.4287920e+08   8.1025535e+07  6.33e+07  0.00e+00  1.75e+08  2.76e-03
       0.25s (252.18 ticks) for iteration (0.08s, 69577 Mflops for lin. solve)
  12   2.8319978e+08   1.3379964e+08  5.84e+07  0.00e+00  1.62e+08  2.07e-03
       0.22s (228.51 ticks) for iteration (0.07s, 74222 Mflops for lin. solve)
  13   3.8187629e+08   2.6067534e+08  5.39e+07  0.00e+00  1.49e+08  1.53e-03
       0.24s (252.18 ticks) for iteration (0.07s, 78220 Mflops for lin. solve)
  14   4.3101253e+08   3.2323486e+08  4.37e+07  0.00e+00  1.21e+08  1.58e-03
       0.20s (230.85 ticks) for iteration (0.07s, 78729 Mflops for lin. solve)
  15   6.8343792e+08   6.4284260e+08  3.89e+07  0.00e+00  1.08e+08  1.86e-03
       0.24s (254.92 ticks) for iteration (0.06s, 82978 Mflops for lin. solve)
  16   7.9121229e+08   7.7913282e+08  1.46e+07  0.00e+00  4.06e+07  6.17e-03
       0.29s (252.57 ticks) for iteration (0.07s, 73129 Mflops for lin. solve)
  17   8.2974145e+08   8.2781901e+08  4.36e+06  0.00e+00  1.21e+07  3.52e-02
       0.24s (228.25 ticks) for iteration (0.08s, 70305 Mflops for lin. solve)
  18   8.3638155e+08   8.3620656e+08  6.94e+05  0.00e+00  1.92e+06  3.42e-01
       0.20s (206.28 ticks) for iteration (0.07s, 79357 Mflops for lin. solve)
  19   8.3691468e+08   8.3687985e+08  6.32e+04  0.00e+00  1.75e+05  1.65e+00
       0.18s (209.12 ticks) for iteration (0.07s, 70707 Mflops for lin. solve)
  20   8.3698039e+08   8.3696285e+08  1.26e+04  0.00e+00  3.48e+04  3.23e+00
       0.17s (206.92 ticks) for iteration (0.07s, 79926 Mflops for lin. solve)
  21   8.3700683e+08   8.3699623e+08  6.33e+03  0.00e+00  1.75e+04  5.29e+00
       0.17s (207.05 ticks) for iteration (0.07s, 79333 Mflops for lin. solve)
  22   8.3703470e+08   8.3703142e+08  3.82e+03  0.00e+00  1.06e+04  1.70e+01
       0.20s (207.05 ticks) for iteration (0.09s, 61069 Mflops for lin. solve)
  23   8.3704347e+08   8.3704250e+08  1.18e+03  0.00e+00  3.27e+03  5.71e+01
       0.20s (206.66 ticks) for iteration (0.08s, 67613 Mflops for lin. solve)
  24   8.3704613e+08   8.3704586e+08  3.49e+02  0.00e+00  9.69e+02  2.05e+02
       0.20s (205.22 ticks) for iteration (0.07s, 79009 Mflops for lin. solve)
  25   8.3704692e+08   8.3704686e+08  9.73e+01  0.00e+00  2.70e+02  9.02e+02
       0.14s (183.24 ticks) for iteration (0.07s, 79776 Mflops for lin. solve)
  26   8.3704711e+08   8.3704710e+08  2.21e+01  0.00e+00  6.11e+01  5.31e+03
       0.14s (183.63 ticks) for iteration (0.07s, 78561 Mflops for lin. solve)
  27   8.3704715e+08   8.3704714e+08  4.00e+00  0.00e+00  1.06e+01  3.53e+04
       0.18s (184.02 ticks) for iteration (0.07s, 78303 Mflops for lin. solve)
  28   8.3704715e+08   8.3704715e+08  6.30e-01  0.00e+00  1.62e+00  5.97e+05
       0.22s (207.17 ticks) for iteration (0.11s, 48182 Mflops for lin. solve)
  29   8.3704715e+08   8.3704715e+08  1.20e-01  0.00e+00  1.71e-01  7.76e+06
       0.22s (231.88 ticks) for iteration (0.07s, 79464 Mflops for lin. solve)
  30   8.3704715e+08   8.3704715e+08  2.68e-02  0.00e+00  2.20e-02  2.49e+06
       0.22s (231.64 ticks) for iteration (0.07s, 78327 Mflops for lin. solve)
  31   8.3704715e+08   8.3704715e+08  2.70e-01  0.00e+00  3.75e-02  1.19e+06
       0.18s (205.69 ticks) for iteration (0.07s, 78914 Mflops for lin. solve)
  32   8.3704715e+08   8.3704715e+08  4.41e-01  0.00e+00  5.77e-02  5.45e+05
       0.22s (230.79 ticks) for iteration (0.07s, 74650 Mflops for lin. solve)
  33   8.3704715e+08   8.3704715e+08  5.27e-01  0.00e+00  6.83e-02  1.71e+05
       0.20s (206.08 ticks) for iteration (0.07s, 72432 Mflops for lin. solve)
  34   8.3704715e+08   8.3704715e+08  9.25e-01  0.00e+00  1.31e-01  4.14e+05
       0.26s (230.79 ticks) for iteration (0.07s, 78508 Mflops for lin. solve)
  35   8.3704715e+08   8.3704715e+08  5.34e-01  0.00e+00  7.19e-02  4.05e+05
       0.18s (206.08 ticks) for iteration (0.07s, 79393 Mflops for lin. solve)
  36   8.3704715e+08   8.3704715e+08  5.24e-01  0.00e+00  7.08e-02  1.74e+05
       0.21s (205.69 ticks) for iteration (0.07s, 71765 Mflops for lin. solve)
  37   8.3704715e+08   8.3704715e+08  8.04e-01  0.00e+00  1.15e-01  3.18e+05
       0.23s (230.79 ticks) for iteration (0.07s, 73726 Mflops for lin. solve)
  38   8.3704715e+08   8.3704715e+08  5.83e-01  0.00e+00  8.02e-02  3.36e+05
       0.26s (220.29 ticks) for iteration (0.07s, 78177 Mflops for lin. solve)
  39   8.3704715e+08   8.3704715e+08  5.70e-01  0.00e+00  7.81e-02  7.58e+05
       0.25s (254.86 ticks) for iteration (0.07s, 78618 Mflops for lin. solve)
  40   8.3704715e+08   8.3704715e+08  4.02e-01  0.00e+00  5.11e-02  4.87e+05
       0.22s (205.30 ticks) for iteration (0.08s, 65069 Mflops for lin. solve)
  41   8.3704715e+08   8.3704715e+08  4.40e-01  0.00e+00  5.88e-02  5.09e+05
       0.20s (219.90 ticks) for iteration (0.07s, 79616 Mflops for lin. solve)
  42   8.3704715e+08   8.3704715e+08  4.31e-01  0.00e+00  5.75e-02  2.57e+05
       0.19s (206.08 ticks) for iteration (0.07s, 78499 Mflops for lin. solve)
  43   8.3704715e+08   8.3704715e+08  6.08e-01  0.00e+00  8.48e-02  4.96e+05
       0.23s (230.79 ticks) for iteration (0.07s, 76148 Mflops for lin. solve)
  44   8.3704715e+08   8.3704715e+08  4.01e-01  0.00e+00  5.40e-02  1.49e+06
       0.19s (205.30 ticks) for iteration (0.07s, 79763 Mflops for lin. solve)
  45   8.3704715e+08   8.3704715e+08  2.61e-01  0.00e+00  3.21e-02  6.42e+06
       0.28s (254.33 ticks) for iteration (0.07s, 72460 Mflops for lin. solve)
  46   8.3704715e+08   8.3704715e+08  6.40e-02  0.00e+00  1.06e-02  6.30e+06
       0.20s (206.86 ticks) for iteration (0.07s, 73023 Mflops for lin. solve)
  47   8.3704715e+08   8.3704715e+08  8.85e-02  0.00e+00  2.34e-03  3.00e+05
       0.23s (230.92 ticks) for iteration (0.07s, 71227 Mflops for lin. solve)
  48   8.3704715e+08   8.3704715e+08  7.19e-01  0.00e+00  1.38e-02  4.70e+06
       0.20s (206.08 ticks) for iteration (0.07s, 74795 Mflops for lin. solve)
  49   8.3704715e+08   8.3704715e+08  8.61e-02  0.00e+00  2.42e-03  1.07e+07
       0.27s (254.86 ticks) for iteration (0.07s, 79422 Mflops for lin. solve)
  50   8.3704715e+08   8.3704715e+08  3.84e-02  0.00e+00  8.76e-04  5.33e+07
